words_hard_train/4142.qaiger
aag 78 21 0 1 57
2
4
8
12
16
18
22
26
30
34
44
48
60
74
76
90
92
100
102
112
114
157
6 2 4
10 6 9
14 12 2
20 16 19
24 20 23
28 24 27
32 28 31
36 33 34
38 32 35
40 37 39
42 15 41
46 44 2
50 39 48
52 38 49
54 51 53
56 47 55
58 43 57
62 60 2
64 29 30
66 65 33
68 62 66
70 14 40
72 69 71
78 74 76
80 25 26
82 81 29
84 79 83
86 63 67
88 85 87
94 90 92
96 95 22
98 97 25
104 100 102
106 104 19
108 94 23
110 107 109
116 112 114
118 117 17
120 105 18
122 119 121
124 110 123
126 98 125
128 78 82
130 127 129
132 88 131
134 72 133
136 58 135
138 136 52
140 11 139
142 7 8
144 143 53
146 144 137
148 46 51
150 146 149
152 140 151
154 143 138
156 153 155
i0 1 x1[7]
i1 1 x2[7]
i2 2 y2[7]
i3 1 x2[5]
i4 2 y2[0]
i5 2 y2[1]
i6 2 y2[2]
i7 2 y2[3]
i8 2 y2[4]
i9 2 y2[5]
i10 1 x2[6]
i11 2 y2[6]
i12 1 x2[4]
i13 1 x1[6]
i14 1 x2[3]
i15 1 x1[5]
i16 1 x2[2]
i17 1 x1[4]
i18 1 x2[1]
i19 1 x1[3]
i20 1 x2[0]
o0 bv[0]
c
simplified
  >=
    and
      1 x2
      >> 3
        1 x1
    xor
      2 y2
      1
