words_hard_train/4142.qaiger.qdimacs
p cnf 78 172
a 1 2 37 6 38 45 46 50 51 22 56 57 30 0
e 3 4 5 7 8 9 10 11 12 13 14 15 16 17 18 19 20 21 23 24 25 26 27 28 29 31 32 33 34 35 36 39 40 41 42 43 44 47 48 49 52 53 54 55 58 59 60 61 62 63 64 65 66 67 68 69 70 71 72 73 74 75 76 77 78 0
-1 -2 3 0
1 -3 0
2 -3 0
-3 4 5 0
3 -5 0
-4 -5 0
-6 -1 7 0
6 -7 0
1 -7 0
-8 9 10 0
8 -10 0
-9 -10 0
-10 11 12 0
10 -12 0
-11 -12 0
-12 13 14 0
12 -14 0
-13 -14 0
-14 15 16 0
14 -16 0
-15 -16 0
16 -17 18 0
-16 -18 0
17 -18 0
-16 17 19 0
16 -19 0
-17 -19 0
18 19 20 0
-18 -20 0
-19 -20 0
7 20 21 0
-7 -21 0
-20 -21 0
-22 -1 23 0
22 -23 0
1 -23 0
19 -24 25 0
-19 -25 0
24 -25 0
-19 24 26 0
19 -26 0
-24 -26 0
25 26 27 0
-25 -27 0
-26 -27 0
23 27 28 0
-23 -28 0
-27 -28 0
21 28 29 0
-21 -29 0
-28 -29 0
-30 -1 31 0
30 -31 0
1 -31 0
14 -15 32 0
-14 -32 0
15 -32 0
32 16 33 0
-32 -33 0
-16 -33 0
-31 -33 34 0
31 -34 0
33 -34 0
-7 -20 35 0
7 -35 0
20 -35 0
34 35 36 0
-34 -36 0
-35 -36 0
-37 -38 39 0
37 -39 0
38 -39 0
12 -13 40 0
-12 -40 0
13 -40 0
40 14 41 0
-40 -41 0
-14 -41 0
39 41 42 0
-39 -42 0
-41 -42 0
31 33 43 0
-31 -43 0
-33 -43 0
42 43 44 0
-42 -44 0
-43 -44 0
-45 -46 47 0
45 -47 0
46 -47 0
47 -11 48 0
-47 -48 0
11 -48 0
48 12 49 0
-48 -49 0
-12 -49 0
-50 -51 52 0
50 -52 0
51 -52 0
-52 9 53 0
52 -53 0
-9 -53 0
-47 11 54 0
47 -54 0
-11 -54 0
53 54 55 0
-53 -55 0
-54 -55 0
-56 -57 58 0
56 -58 0
57 -58 0
58 8 59 0
-58 -59 0
-8 -59 0
52 -9 60 0
-52 -60 0
9 -60 0
59 60 61 0
-59 -61 0
-60 -61 0
-55 61 62 0
55 -62 0
-61 -62 0
-49 62 63 0
49 -63 0
-62 -63 0
-39 -41 64 0
39 -64 0
41 -64 0
63 64 65 0
-63 -65 0
-64 -65 0
-44 65 66 0
44 -66 0
-65 -66 0
-36 66 67 0
36 -67 0
-66 -67 0
-29 67 68 0
29 -68 0
-67 -68 0
-68 -26 69 0
68 -69 0
26 -69 0
5 69 70 0
-5 -70 0
-69 -70 0
3 -4 71 0
-3 -71 0
4 -71 0
71 26 72 0
-71 -72 0
-26 -72 0
-72 68 73 0
72 -73 0
-68 -73 0
-23 25 74 0
23 -74 0
-25 -74 0
-73 74 75 0
73 -75 0
-74 -75 0
-70 75 76 0
70 -76 0
-75 -76 0
71 -69 77 0
-71 -77 0
69 -77 0
76 77 78 0
-76 -78 0
-77 -78 0
-78 0
